
  22   10
  10   10   10   10   10   10   10   10   10   10

   0   0   0   0   0   0   0   0   0   0   0   2 2 21 
   2  10  10  10  10  10  10  10  10  10  10   1 3 
   1  10  10  10  10  10  10  10  10  10  10   1 4 
   5  10  10  10  10  10  10  10  10  10  10   1 5 
   5  10  10  10  10  10  10  10  10  10  10   1 6 
   9  10  10  10  10  10  10  10  10  10  10   1 7 
   5  10  10  10  10  10  10  10  10  10  10   1 8 
   7  10  10  10  10  10  10  10  10  10  10   1 9 
   7  10  10  10  10  10  10  10  10  10  10   1 10 
   4  10  10  10  10  10  10  10  10  10  10   1 11 
   5  10  10  10  10  10  10  10  10  10  10   1 12 
   4  10  10  10  10  10  10  10  10  10  10   2 19 13 
   3  10  10  10  10  10  10  10  10  10  10   1 14 
   9  10  10  10  10  10  10  10  10  10  10   1 15 
   9  10  10  10  10  10  10  10  10  10  10   1 16 
   7  10  10  10  10  10  10  10  10  10  10   1 17 
   1  10  10  10  10  10  10  10  10  10  10   1 18 
   7  10  10  10  10  10  10  10  10  10  10   1 20 
  10  10  10  10  10  10  10  10  10  10  10   1 20 
   5  10  10  10  10  10  10  10  10  10  10   1 22
  10  10  10  10  10  10  10  10  10  10  10   1 22
   0   0   0   0   0   0   0   0   0   0   0   0 
